Maximize
  1.3293869293202546e-04 Z_226_0_0 + 0.00831673793302175 Z_226_0_1
   + 0.8451970253501516 Z_226_0_2 + 0.00192351408236367 Z_226_0_3
   + 0.0444297839415309 Z_226_0_4
Subject To
 constraint1_2260: Z_226_0_0 + Z_226_0_1 + Z_226_0_2 + Z_226_0_3
   + Z_226_0_4 <= 1
 constraint2_2260: Z_226_0_0 <= 1
 constraint2_2261: Z_226_0_1 <= 1
 constraint2_2262: Z_226_0_2 <= 1
 constraint2_2263: Z_226_0_3 <= 1
Bounds
Binaries
 Z_226_0_0 Z_226_0_1 Z_226_0_2 Z_226_0_3 Z_226_0_4
End
